
220.0
250.0
220.0
220.0
220.0
220.0
220.0
220.0
220.0
220.0
220.0
220.0
220.0
220.0
220.0
220.0
220.0
220.0
220.0
220.0
220.0
220.0
220.0
220.0
220.0
220.0
220.0
220.0
220.0
220.0
220.0
220.0
220.0
220.0
220.0
260.0
220.0
220.0
220.0
220.0
220.0
220.0
220.0
220.0
220.0
300.0
220.0
220.0
220.0
220.0